p cnf 33 95
a 1 26 0
e 2 3 4 5 6 7 8 9 10 11 12 13 14 15 16 17 18 19 20 21 22 23 24 25 27 28 29 30 31 32 33 0
3 1 0
3 -2 0
-1 2 -3 0
-6 -4 0
-6 5 0
4 -5 6 0
6 2 -7 0
-6 -2 -7 0
6 -2 7 0
-6 2 7 0
-9 5 0
-9 -8 0
-5 8 9 0
11 -2 0
11 2 0
10 -11 -12 0
-10 11 -12 0
10 11 12 0
-10 -11 12 0
-2 12 -13 0
2 -12 -13 0
-2 -12 13 0
2 12 13 0
9 -13 -14 0
-9 13 -14 0
9 13 14 0
-9 -13 14 0
-15 7 0
-15 14 0
-7 -14 15 0
16 3 0
16 -15 0
-3 15 -16 0
-18 17 0
-18 17 0
-17 18 0
20 8 0
20 19 0
-8 -19 -20 0
-21 11 0
-21 -2 0
-11 2 21 0
-20 -21 -22 0
20 21 -22 0
-20 21 22 0
20 -21 22 0
-11 21 -23 0
11 -21 -23 0
-11 -21 23 0
11 21 23 0
-22 -23 -24 0
22 23 -24 0
-22 23 24 0
22 -23 24 0
-25 -5 0
-25 12 0
5 -12 25 0
-4 25 -26 0
4 -25 -26 0
-4 -25 26 0
4 25 26 0
25 12 -27 0
-25 -12 -27 0
25 -12 27 0
-25 12 27 0
13 8 -28 0
-13 -8 -28 0
13 -8 28 0
-13 8 28 0
27 28 -29 0
-27 -28 -29 0
27 -28 29 0
-27 28 29 0
30 26 0
30 -29 0
-26 29 -30 0
-31 24 0
-31 -30 0
-24 30 31 0
-32 18 0
-32 -31 0
-18 31 32 0
33 16 0
33 32 0
-16 -32 -33 0
-2 -10 -24 -8 -31 -25 -11 0
-19 -24 -29 -21 20 -18 -7 0
33 -11 15 -20 0
21 -25 -9 -11 0
-15 20 21 -4 2 -5 0
-14 3 32 20 -26 12 28 -5 0
29 -10 24 25 -26 0
-3 29 22 -14 7 -20 17 0
-7 17 -32 -22 12 14 0
33 0
